NAME: tsp_16_cities
TYPE: TSP
DIMENSION: 16
EDGE_WEIGHT_TYPE: EUC_2D
NODE_COORD_SECTION
1 12 54
2 45 23
3 30 62
4 88 41
5 77 87
6 52 10
7 63 94
8 34 73
9 17 30
10 68 56
11 91 67
12 24 81
13 56 99
14 11 22
15 41 60
16 84 35